c FILE: anna.col
c Translated from Stanford GraphBase File: anna.gb
c Stanford GraphBase ID: book(?anna?,138,0,1,239,0,0,0)
p edge 138 986
e 1 36
e 2 45
e 3 74
e 4 18
e 5 36
e 6 74
e 6 45
e 6 136
e 6 36
e 6 21
e 6 18
e 7 18
e 7 116
e 7 74
e 7 99
e 7 81
e 7 135
e 7 91
e 7 136
e 7 138
e 7 118
e 7 36
e 8 132
e 8 18
e 9 89
e 9 135
e 9 136
e 9 83
e 9 18
e 9 138
e 10 98
e 10 95
e 11 74
e 11 18
e 11 36
e 12 95
e 12 104
e 12 61
e 13 18
e 13 103
e 13 36
e 14 135
e 14 78
e 14 74
e 15 18
e 16 138
e 16 20
e 16 36
e 16 33
e 16 18
e 16 74
e 17 78
e 17 74
e 17 20
e 17 135
e 18 108
e 18 9
e 18 39
e 18 4
e 18 68
e 18 46
e 18 130
e 18 79
e 18 28
e 18 72
e 18 51
e 18 76
e 18 100
e 18 15
e 18 31
e 18 41
e 18 63
e 18 26
e 18 16
e 18 33
e 18 19
e 18 89
e 18 78
e 18 44
e 18 11
e 18 59
e 18 83
e 18 107
e 18 7
e 18 116
e 18 99
e 18 81
e 18 91
e 18 114
e 18 113
e 18 121
e 18 62
e 18 40
e 18 90
e 18 35
e 18 64
e 18 23
e 18 85
e 18 53
e 18 118
e 18 8
e 18 132
e 18 88
e 18 80
e 18 50
e 18 96
e 18 6
e 18 21
e 18 87
e 18 55
e 18 123
e 18 92
e 18 135
e 18 95
e 18 29
e 18 75
e 18 20
e 18 74
e 18 105
e 18 136
e 18 45
e 18 138
e 18 127
e 18 13
e 18 103
e 18 36
e 19 138
e 19 18
e 19 74
e 19 136
e 19 89
e 19 78
e 20 68
e 20 46
e 20 130
e 20 16
e 20 33
e 20 136
e 20 21
e 20 78
e 20 92
e 20 17
e 20 138
e 20 30
e 20 29
e 20 95
e 20 135
e 20 74
e 20 36
e 20 18
e 21 68
e 21 78
e 21 138
e 21 20
e 21 44
e 21 74
e 21 92
e 21 136
e 21 36
e 21 6
e 21 18
e 22 54
e 22 95
e 22 72
e 23 18
e 24 72
e 24 116
e 25 122
e 25 72
e 25 95
e 26 136
e 26 36
e 26 95
e 26 18
e 26 64
e 27 30
e 28 79
e 28 36
e 28 18
e 28 72
e 29 138
e 29 127
e 29 30
e 29 135
e 29 95
e 29 20
e 29 74
e 29 18
e 30 69
e 30 29
e 30 95
e 30 72
e 30 27
e 30 20
e 30 74
e 31 18
e 32 57
e 32 70
e 32 73
e 32 101
e 32 77
e 32 72
e 33 54
e 33 64
e 33 120
e 33 95
e 33 16
e 33 74
e 33 138
e 33 78
e 33 20
e 33 36
e 33 89
e 33 18
e 33 100
e 33 72
e 34 100
e 34 94
e 34 61
e 34 95
e 35 90
e 35 64
e 35 18
e 36 83
e 36 52
e 36 37
e 36 48
e 36 5
e 36 71
e 36 137
e 36 133
e 36 125
e 36 79
e 36 28
e 36 51
e 36 76
e 36 100
e 36 26
e 36 64
e 36 16
e 36 33
e 36 127
e 36 59
e 36 115
e 36 45
e 36 99
e 36 81
e 36 135
e 36 91
e 36 136
e 36 11
e 36 66
e 36 116
e 36 77
e 36 80
e 36 6
e 36 21
e 36 108
e 36 106
e 36 93
e 36 72
e 36 95
e 36 74
e 36 20
e 36 18
e 36 13
e 36 103
e 36 85
e 36 89
e 36 7
e 36 118
e 36 1
e 36 138
e 37 36
e 37 116
e 37 72
e 37 95
e 37 77
e 38 72
e 38 95
e 39 18
e 40 62
e 40 64
e 40 18
e 41 18
e 41 127
e 42 133
e 43 122
e 44 21
e 44 74
e 44 18
e 45 2
e 45 6
e 45 74
e 45 36
e 45 115
e 45 64
e 45 136
e 45 95
e 45 82
e 45 61
e 45 18
e 45 138
e 45 127
e 46 68
e 46 138
e 46 74
e 46 20
e 46 130
e 46 18
e 47 84
e 47 95
e 47 138
e 47 72
e 48 36
e 49 116
e 49 131
e 49 133
e 49 72
e 49 137
e 50 96
e 50 18
e 51 76
e 51 99
e 51 36
e 51 18
e 51 95
e 51 100
e 52 116
e 52 106
e 52 36
e 53 118
e 53 18
e 53 85
e 53 134
e 53 138
e 54 64
e 54 33
e 54 120
e 54 138
e 54 100
e 54 95
e 54 22
e 54 70
e 54 57
e 54 67
e 54 77
e 54 72
e 55 123
e 55 92
e 55 18
e 56 72
e 57 54
e 57 70
e 57 73
e 57 101
e 57 32
e 57 77
e 57 72
e 58 85
e 58 89
e 58 126
e 58 138
e 59 135
e 59 74
e 59 138
e 59 36
e 59 83
e 59 136
e 59 18
e 60 135
e 60 117
e 60 74
e 61 94
e 61 34
e 61 100
e 61 82
e 61 45
e 61 95
e 61 12
e 61 104
e 62 40
e 62 64
e 62 18
e 63 83
e 63 18
e 64 26
e 64 36
e 64 54
e 64 138
e 64 120
e 64 72
e 64 33
e 64 95
e 64 136
e 64 45
e 64 62
e 64 40
e 64 90
e 64 35
e 64 18
e 65 95
e 65 135
e 65 74
e 66 36
e 67 54
e 67 77
e 67 72
e 68 21
e 68 20
e 68 74
e 68 130
e 68 138
e 68 46
e 68 18
e 69 86
e 69 30
e 70 95
e 70 116
e 70 54
e 70 57
e 70 73
e 70 101
e 70 32
e 70 77
e 70 72
e 71 36
e 72 102
e 72 84
e 72 56
e 72 110
e 72 79
e 72 18
e 72 28
e 72 64
e 72 120
e 72 33
e 72 22
e 72 100
e 72 131
e 72 49
e 72 109
e 72 38
e 72 122
e 72 25
e 72 112
e 72 57
e 72 70
e 72 73
e 72 101
e 72 32
e 72 67
e 72 54
e 72 111
e 72 24
e 72 37
e 72 77
e 72 133
e 72 116
e 72 47
e 72 30
e 72 108
e 72 106
e 72 74
e 72 85
e 72 89
e 72 138
e 72 93
e 72 36
e 72 95
e 73 57
e 73 70
e 73 101
e 73 32
e 73 77
e 73 72
e 74 83
e 74 108
e 74 68
e 74 46
e 74 130
e 74 65
e 74 16
e 74 33
e 74 19
e 74 6
e 74 45
e 74 44
e 74 21
e 74 3
e 74 11
e 74 59
e 74 127
e 74 7
e 74 116
e 74 99
e 74 81
e 74 91
e 74 136
e 74 119
e 74 117
e 74 60
e 74 123
e 74 92
e 74 78
e 74 14
e 74 17
e 74 30
e 74 85
e 74 89
e 74 138
e 74 72
e 74 135
e 74 29
e 74 95
e 74 75
e 74 36
e 74 20
e 74 105
e 74 18
e 75 74
e 75 18
e 76 51
e 76 99
e 76 36
e 76 18
e 76 95
e 76 100
e 77 57
e 77 70
e 77 73
e 77 101
e 77 32
e 77 67
e 77 54
e 77 36
e 77 116
e 77 37
e 77 95
e 77 72
e 78 33
e 78 21
e 78 19
e 78 89
e 78 99
e 78 18
e 78 136
e 78 138
e 78 135
e 78 17
e 78 20
e 78 123
e 78 92
e 78 14
e 78 74
e 79 95
e 79 36
e 79 28
e 79 72
e 79 18
e 80 18
e 80 36
e 81 7
e 81 18
e 81 138
e 81 116
e 81 74
e 81 99
e 81 135
e 81 91
e 81 136
e 81 36
e 82 95
e 82 45
e 82 61
e 83 74
e 83 89
e 83 9
e 83 138
e 83 135
e 83 36
e 83 63
e 83 59
e 83 136
e 83 18
e 84 102
e 84 47
e 84 72
e 85 135
e 85 136
e 85 108
e 85 18
e 85 58
e 85 53
e 85 134
e 85 126
e 85 118
e 85 74
e 85 138
e 85 72
e 85 89
e 85 36
e 86 69
e 87 18
e 88 18
e 89 9
e 89 83
e 89 135
e 89 108
e 89 33
e 89 18
e 89 136
e 89 19
e 89 78
e 89 58
e 89 126
e 89 74
e 89 138
e 89 72
e 89 85
e 89 36
e 90 35
e 90 64
e 90 18
e 91 7
e 91 18
e 91 138
e 91 116
e 91 74
e 91 99
e 91 81
e 91 135
e 91 136
e 91 36
e 92 21
e 92 78
e 92 20
e 92 74
e 92 55
e 92 123
e 92 18
e 93 136
e 93 115
e 93 97
e 93 72
e 93 36
e 93 95
e 94 100
e 94 34
e 94 61
e 94 95
e 95 110
e 95 47
e 95 79
e 95 51
e 95 76
e 95 99
e 95 65
e 95 26
e 95 136
e 95 138
e 95 64
e 95 120
e 95 33
e 95 70
e 95 115
e 95 54
e 95 22
e 95 122
e 95 25
e 95 97
e 95 109
e 95 94
e 95 34
e 95 10
e 95 38
e 95 98
e 95 124
e 95 100
e 95 37
e 95 82
e 95 45
e 95 77
e 95 12
e 95 104
e 95 61
e 95 116
e 95 30
e 95 108
e 95 106
e 95 93
e 95 72
e 95 36
e 95 135
e 95 29
e 95 18
e 95 74
e 95 20
e 96 50
e 96 18
e 97 115
e 97 93
e 97 95
e 98 10
e 98 124
e 98 95
e 99 51
e 99 76
e 99 95
e 99 100
e 99 78
e 99 7
e 99 18
e 99 138
e 99 116
e 99 74
e 99 81
e 99 135
e 99 91
e 99 136
e 99 36
e 100 110
e 100 51
e 100 76
e 100 99
e 100 36
e 100 18
e 100 33
e 100 54
e 100 72
e 100 94
e 100 34
e 100 61
e 100 95
e 101 57
e 101 70
e 101 73
e 101 32
e 101 77
e 101 72
e 102 84
e 102 72
e 103 18
e 103 13
e 103 36
e 104 95
e 104 12
e 104 61
e 105 74
e 105 18
e 106 52
e 106 133
e 106 116
e 106 95
e 106 72
e 106 36
e 106 108
e 107 18
e 108 18
e 108 135
e 108 138
e 108 85
e 108 89
e 108 74
e 108 136
e 108 95
e 108 72
e 108 36
e 108 106
e 109 137
e 109 72
e 109 133
e 109 95
e 109 116
e 110 100
e 110 95
e 110 72
e 111 133
e 111 72
e 112 120
e 112 138
e 112 116
e 112 72
e 113 18
e 114 18
e 115 93
e 115 95
e 115 97
e 115 36
e 115 136
e 115 45
e 116 52
e 116 131
e 116 49
e 116 137
e 116 128
e 116 112
e 116 109
e 116 7
e 116 18
e 116 74
e 116 99
e 116 81
e 116 135
e 116 91
e 116 136
e 116 138
e 116 36
e 116 70
e 116 133
e 116 24
e 116 106
e 116 37
e 116 77
e 116 95
e 116 72
e 117 135
e 117 60
e 117 74
e 118 53
e 118 18
e 118 126
e 118 85
e 118 138
e 118 7
e 118 36
e 119 74
e 119 135
e 120 112
e 120 54
e 120 138
e 120 64
e 120 72
e 120 33
e 120 95
e 121 18
e 122 72
e 122 25
e 122 95
e 122 43
e 123 78
e 123 74
e 123 55
e 123 92
e 123 18
e 124 98
e 124 95
e 125 36
e 126 58
e 126 89
e 126 85
e 126 118
e 126 138
e 127 29
e 127 36
e 127 74
e 127 41
e 127 18
e 127 45
e 127 138
e 128 133
e 128 116
e 129 135
e 130 68
e 130 138
e 130 46
e 130 74
e 130 20
e 130 18
e 131 116
e 131 72
e 131 49
e 131 133
e 132 8
e 132 18
e 133 36
e 133 49
e 133 42
e 133 131
e 133 109
e 133 106
e 133 128
e 133 111
e 133 116
e 133 72
e 134 85
e 134 53
e 134 138
e 135 9
e 135 108
e 135 85
e 135 89
e 135 83
e 135 65
e 135 59
e 135 129
e 135 7
e 135 116
e 135 99
e 135 81
e 135 91
e 135 136
e 135 36
e 135 117
e 135 60
e 135 14
e 135 78
e 135 119
e 135 17
e 135 138
e 135 95
e 135 29
e 135 74
e 135 18
e 135 20
e 136 9
e 136 85
e 136 108
e 136 93
e 136 26
e 136 95
e 136 20
e 136 19
e 136 89
e 136 78
e 136 115
e 136 59
e 136 83
e 136 64
e 136 45
e 136 7
e 136 138
e 136 116
e 136 74
e 136 99
e 136 81
e 136 135
e 136 91
e 136 36
e 136 6
e 136 21
e 136 18
e 137 36
e 137 49
e 137 109
e 137 116
e 138 9
e 138 83
e 138 108
e 138 68
e 138 46
e 138 130
e 138 54
e 138 112
e 138 47
e 138 64
e 138 120
e 138 95
e 138 19
e 138 16
e 138 33
e 138 21
e 138 78
e 138 29
e 138 59
e 138 99
e 138 81
e 138 91
e 138 136
e 138 116
e 138 58
e 138 53
e 138 134
e 138 126
e 138 135
e 138 20
e 138 74
e 138 85
e 138 89
e 138 72
e 138 18
e 138 45
e 138 127
e 138 118
e 138 7
e 138 36